     Program PHONON v.7.0 starts on 15Jun2022 at  0:19:53

     R & G space division:  proc/nbgrp/npool/nimage =       8

     Reading input from mob2_fonon_02.in

     Reading xml data from directory:

     ./tmp/mob2.save/

     IMPORTANT: XC functional enforced from input :
     Exchange-correlation= PBE
                           (   1   4   3   4   0   0   0)
     Any further DFT definition will be discarded
     Please, verify this is what you really want

     Using Slab Decomposition

     Reading collected, re-writing distributed wavefunctions

     Dynamical matrices for ( 3, 3, 3)  uniform grid of q-points
     (   6 q-points):
       N         xq(1)         xq(2)         xq(3)
       1   0.000000000   0.000000000   0.000000000
       2   0.000000000   0.000000000   0.311376641
       3   0.000000000   0.384900179   0.000000000
       4   0.000000000   0.384900179   0.311376641
       5   0.333333333   0.577350269   0.000000000
       6   0.333333333   0.577350269   0.311376641

     Calculation of q =    0.0000000   0.0000000   0.3113766

     Subspace diagonalization in iterative solution of the eigenvalue problem:
     a serial algorithm will be used

     Using Slab Decomposition

     Title:
     Phonon calc for qp02

     bravais-lattice index     =            4
     lattice parameter (alat)  =       5.8733  a.u.
     unit-cell volume          =     187.8355 (a.u.)^3
     number of atoms/cell      =            3
     number of atomic types    =            2
     number of electrons       =        19.00
     number of Kohn-Sham states=           20
     kinetic-energy cutoff     =      48.0000  Ry
     charge density cutoff     =     672.0000  Ry
     Exchange-correlation= PBE
                           (   1   4   3   4   0   0   0)

     celldm(1)=   5.873335  celldm(2)=   0.000000  celldm(3)=   1.070515
     celldm(4)=   0.000000  celldm(5)=   0.000000  celldm(6)=   0.000000

     crystal axes: (cart. coord. in units of alat)
               a(1) = (   1.000000   0.000000   0.000000 )
               a(2) = (  -0.500000   0.866025   0.000000 )
               a(3) = (   0.000000   0.000000   1.070515 )

     reciprocal axes: (cart. coord. in units 2 pi/alat)
               b(1) = (  1.000000  0.577350  0.000000 )
               b(2) = (  0.000000  1.154701  0.000000 )
               b(3) = (  0.000000  0.000000  0.934130 )

     PseudoPot. # 1 for Xx read from file:
     /home/marcocarmonaga/Apps/qe-7.0/pseudo/Nb1.00Mo0.00.upf
     MD5 check sum: e4b562b21cfca1bf7e2ab47e57cae993
     Pseudo is Norm-conserving, Zval = 13.0
     Generated using virtual.x code
     Using radial grid of  602 points, 12 beta functions with:
                l(1) =   0
                l(2) =   0
                l(3) =   1
                l(4) =   1
                l(5) =   2
                l(6) =   2
                l(7) =   0
                l(8) =   0
                l(9) =   1
               l(10) =   1
               l(11) =   2
               l(12) =   2

     PseudoPot. # 2 for B  read from file:
     /home/marcocarmonaga/Apps/qe-7.0/pseudo/B_ONCV_PBE-1.2.upf
     MD5 check sum: eb3cbeacc2d324d57d903df00f564d27
     Pseudo is Norm-conserving, Zval =  3.0
     Generated using ONCVPSP code by D. R. Hamann
     Using radial grid of  602 points,  4 beta functions with:
                l(1) =   0
                l(2) =   0
                l(3) =   1
                l(4) =   1

     atomic species   valence    mass     pseudopotential
        Mo            13.00    92.90600     Xx( 1.00)
        B              3.00    10.81000     B ( 1.00)

     24 Sym. Ops., with inversion, found

   Cartesian axes

     site n.     atom                  positions (alat units)
         1           Mo  tau(   1) = (   0.0000000   0.0000000   0.0000000  )
         2           B   tau(   2) = (   0.5000000   0.2886751   0.5352574  )
         3           B   tau(   3) = (   0.0000000   0.5773503   0.5352574  )

     number of k points=  1332  Gaussian smearing, width (Ry)=  0.0150

     Number of k-points >= 100: set verbosity='high' to print them.

     The potential is recalculated from file :
     ./tmp/_ph0/mob2.save/charge-density

     Starting wfcs are    0 atomic +   20 random wfcs

     Band Structure Calculation
     Davidson diagonalization with overlap

     ethr =  5.26E-11,  avg # of iterations = 22.9

     End of band structure calculation

     Number of k-points >= 100: set verbosity='high' to print the bands.

     the Fermi energy is    18.4715 ev

     Phonon calc for qp02

     bravais-lattice index     =            4
     lattice parameter (alat)  =       5.8733  a.u.
     unit-cell volume          =     187.8355 (a.u.)^3
     number of atoms/cell      =            3
     number of atomic types    =            2
     kinetic-energy cut-off    =      48.0000  Ry
     charge density cut-off    =     672.0000  Ry
     convergence threshold     =      1.0E-14
     beta                      =       0.7000
     number of iterations used =            4
     Exchange-correlation= PBE
                           (   1   4   3   4   0   0   0)

     celldm(1)=    5.87334  celldm(2)=    0.00000  celldm(3)=    1.07051
     celldm(4)=    0.00000  celldm(5)=    0.00000  celldm(6)=    0.00000

     crystal axes: (cart. coord. in units of alat)
               a(1) = (  1.0000  0.0000  0.0000 )
               a(2) = ( -0.5000  0.8660  0.0000 )
               a(3) = (  0.0000  0.0000  1.0705 )

     reciprocal axes: (cart. coord. in units 2 pi/alat)
               b(1) = (  1.0000  0.5774  0.0000 )
               b(2) = (  0.0000  1.1547  0.0000 )
               b(3) = (  0.0000  0.0000  0.9341 )

     Atoms inside the unit cell:

     Cartesian axes

     site n.  atom      mass           positions (alat units)
        1     Mo  92.9060   tau(    1) = (    0.00000    0.00000    0.00000  )
        2     B   10.8100   tau(    2) = (    0.50000    0.28868    0.53526  )
        3     B   10.8100   tau(    3) = (    0.00000    0.57735    0.53526  )

     Computing dynamical matrix for
                    q = (   0.0000000   0.0000000   0.3113766 )

     12 Sym.Ops. (no q -> -q+G )

     G cutoff =  587.1906  (   6903 G-vectors)     FFT grid: ( 50, 50, 54)
     G cutoff =  167.7687  (   1049 G-vectors)  smooth grid: ( 25, 25, 27)

     number of k points=  1332  Gaussian smearing, width (Ry)=  0.0150

     PseudoPot. # 1 for Xx read from file:
     /home/marcocarmonaga/Apps/qe-7.0/pseudo/Nb1.00Mo0.00.upf
     MD5 check sum: e4b562b21cfca1bf7e2ab47e57cae993
     Pseudo is Norm-conserving, Zval = 13.0
     Generated using virtual.x code
     Using radial grid of  602 points, 12 beta functions with:
                l(1) =   0
                l(2) =   0
                l(3) =   1
                l(4) =   1
                l(5) =   2
                l(6) =   2
                l(7) =   0
                l(8) =   0
                l(9) =   1
               l(10) =   1
               l(11) =   2
               l(12) =   2

     PseudoPot. # 2 for B  read from file:
     /home/marcocarmonaga/Apps/qe-7.0/pseudo/B_ONCV_PBE-1.2.upf
     MD5 check sum: eb3cbeacc2d324d57d903df00f564d27
     Pseudo is Norm-conserving, Zval =  3.0
     Generated using ONCVPSP code by D. R. Hamann
     Using radial grid of  602 points,  4 beta functions with:
                l(1) =   0
                l(2) =   0
                l(3) =   1
                l(4) =   1

     Mode symmetry, C_6v (6mm)  point group:

     Atomic displacements:
     There are    6 irreducible representations

     Representation     1      1 modes -  To be done

[...]

     Representation     6      2 modes -  To be done

     Alpha used in Ewald sum =   2.8000

     Representation #   1 mode #   1

     Self-consistent Calculation

      thresh= 1.000E-02 alpha_mix =  0.700 |ddv_scf|^2 =  9.089E-03

[...]

     End of self-consistent calculation

     Convergence has been achieved

[...]

     Representation #   3 mode #   3

[...]

     Representation #   4 modes #   4   5

[...]

     Representation #   6 modes #   8   9

     Self-consistent Calculation

[...]

      thresh= 4.091E-08 alpha_mix =  0.700 |ddv_scf|^2 =  5.061E-16

     End of self-consistent calculation

     Convergence has been achieved

     Number of q in the star =    2
     List of q in the star:
          1   0.000000000   0.000000000   0.311376641
          2   0.000000000   0.000000000  -0.311376641

     Diagonalizing the dynamical matrix

     q = (    0.000000000   0.000000000   0.311376641 )

     freq (    1) =       4.303705 [THz] =     143.556141 [cm-1]
     freq (    2) =       4.303705 [THz] =     143.556141 [cm-1]
     freq (    3) =       5.272213 [THz] =     175.862084 [cm-1]
     freq (    4) =      12.359376 [THz] =     412.264412 [cm-1]
     freq (    5) =      12.359376 [THz] =     412.264412 [cm-1]
     freq (    6) =      15.815403 [THz] =     527.545057 [cm-1]
     freq (    7) =      15.916038 [THz] =     530.901879 [cm-1]
     freq (    8) =      22.511875 [THz] =     750.915324 [cm-1]
     freq (    9) =      22.511875 [THz] =     750.915324 [cm-1]

     Mode symmetry, C_6v (6mm)  point group:

     freq (   1-   2) =        143.6  [cm-1]   --> E_1
     freq (   3-   3) =        175.9  [cm-1]   --> A_1
     freq (   4-   5) =        412.3  [cm-1]   --> E_1
     freq (   6-   6) =        527.5  [cm-1]   --> A_1
     freq (   7-   7) =        530.9  [cm-1]   --> B_1
     freq (   8-   9) =        750.9  [cm-1]   --> E_2

     General routines

     Parallel routines

     INITIALIZATION:

     DYNAMICAL MATRIX:

      General routines

   This run was terminated on:   0:37:26  15Jun2022

   JOB DONE.