     Program PHONON v.7.0 starts on  1Jun2022 at  3:22:39

     R & G space division:  proc/nbgrp/npool/nimage =       8

     Reading input from mob2_fonon_01.in

     Reading xml data from directory:

     ./tmp/mob2.save/

     IMPORTANT: XC functional enforced from input :
     Exchange-correlation= PBE
                           (   1   4   3   4   0   0   0)
     Any further DFT definition will be discarded
     Please, verify this is what you really want

     Using Slab Decomposition

     Reading collected, re-writing distributed wavefunctions

     Dynamical matrices for ( 3, 3, 3)  uniform grid of q-points
     (   6 q-points):
       N         xq(1)         xq(2)         xq(3)
       1   0.000000000   0.000000000   0.000000000
       2   0.000000000   0.000000000   0.311376641
       3   0.000000000   0.384900179   0.000000000
       4   0.000000000   0.384900179   0.311376641
       5   0.333333333   0.577350269   0.000000000
       6   0.333333333   0.577350269   0.311376641

     Calculation of q =    0.0000000   0.0000000   0.0000000

     Phonon calc for qp01

     bravais-lattice index     =            4
     lattice parameter (alat)  =       5.8733  a.u.
     unit-cell volume          =     187.8355 (a.u.)^3
     number of atoms/cell      =            3
     number of atomic types    =            2
     kinetic-energy cut-off    =      52.0000  Ry
     charge density cut-off    =     728.0000  Ry
     convergence threshold     =      1.0E-14
     beta                      =       0.7000
     number of iterations used =            4
     Exchange-correlation= PBE
                           (   1   4   3   4   0   0   0)

     celldm(1)=    5.87334  celldm(2)=    0.00000  celldm(3)=    1.07051
     celldm(4)=    0.00000  celldm(5)=    0.00000  celldm(6)=    0.00000

     crystal axes: (cart. coord. in units of alat)
               a(1) = (  1.0000  0.0000  0.0000 )
               a(2) = ( -0.5000  0.8660  0.0000 )
               a(3) = (  0.0000  0.0000  1.0705 )

     reciprocal axes: (cart. coord. in units 2 pi/alat)
               b(1) = (  1.0000  0.5774  0.0000 )
               b(2) = (  0.0000  1.1547  0.0000 )
               b(3) = (  0.0000  0.0000  0.9341 )

     Atoms inside the unit cell:

     Cartesian axes

     site n.  atom      mass           positions (alat units)
        1     Mo  92.9060   tau(    1) = (    0.00000    0.00000    0.00000  )
        2     B   10.8100   tau(    2) = (    0.50000    0.28868    0.53526  )
        3     B   10.8100   tau(    3) = (    0.00000    0.57735    0.53526  )

     Computing dynamical matrix for
                    q = (   0.0000000   0.0000000   0.0000000 )

     25 Sym.Ops. (with q -> -q+G )

     G cutoff =  636.1231  (   7775 G-vectors)     FFT grid: ( 54, 54, 54)
     G cutoff =  181.7495  (   1198 G-vectors)  smooth grid: ( 27, 27, 30)

     number of k points=   333  Gaussian smearing, width (Ry)=  0.0150

     PseudoPot. # 1 for Xx read from file:
     /home/marcocarmonaga/Apps/qe-7.0/pseudo/Nb1.00Mo0.00.upf
     MD5 check sum: e4b562b21cfca1bf7e2ab47e57cae993
     Pseudo is Norm-conserving, Zval = 13.0
     Generated using virtual.x code
     Using radial grid of  602 points, 12 beta functions with:
                l(1) =   0
                l(2) =   0
                l(3) =   1
                l(4) =   1
                l(5) =   2
                l(6) =   2
                l(7) =   0
                l(8) =   0
                l(9) =   1
               l(10) =   1
               l(11) =   2
               l(12) =   2

     PseudoPot. # 2 for B  read from file:
     /home/marcocarmonaga/Apps/qe-7.0/pseudo/B_ONCV_PBE-1.2.upf
     MD5 check sum: eb3cbeacc2d324d57d903df00f564d27
     Pseudo is Norm-conserving, Zval =  3.0
     Generated using ONCVPSP code by D. R. Hamann
     Using radial grid of  602 points,  4 beta functions with:
                l(1) =   0
                l(2) =   0
                l(3) =   1
                l(4) =   1

     Mode symmetry, D_6h(6/mmm) point group:

     Atomic displacements:
     There are    6 irreducible representations

     Representation     1      1 modes -  To be done

[...]

     Representation     6      2 modes -  To be done

     Alpha used in Ewald sum =   2.8000

     Representation #   1 mode #   1

     Self-consistent Calculation

     Pert. #  1: Fermi energy shift (Ry) =    -5.7824E-19     0.0000E+00

      thresh= 1.000E-02 alpha_mix =  0.700 |ddv_scf|^2 =  3.720E-08

[...]

     End of self-consistent calculation

     Convergence has been achieved

     Representation #   2 modes #   2   3

[...]

     Representation #   4 mode #   5

[...]

     Representation #   6 modes #   8   9

     Self-consistent Calculation

[...]

     Pert. #  1: Fermi energy shift (Ry) =     2.7573E-25    -1.2245E-39
     Pert. #  2: Fermi energy shift (Ry) =    -2.7573E-25     0.0000E+00

      thresh= 2.323E-08 alpha_mix =  0.700 |ddv_scf|^2 =  1.025E-16

     End of self-consistent calculation

     Convergence has been achieved

     Number of q in the star =    1
     List of q in the star:
          1   0.000000000   0.000000000   0.000000000

     Diagonalizing the dynamical matrix

     q = (    0.000000000   0.000000000   0.000000000 )

     freq (    1) =       0.492657 [THz] =      16.433268 [cm-1]
     freq (    2) =       0.492657 [THz] =      16.433268 [cm-1]
     freq (    3) =       0.572846 [THz] =      19.108078 [cm-1]
     freq (    4) =      12.419297 [THz] =     414.263144 [cm-1]
     freq (    5) =      12.419297 [THz] =     414.263144 [cm-1]
     freq (    6) =      14.176729 [THz] =     472.884792 [cm-1]
     freq (    7) =      16.341449 [THz] =     545.092051 [cm-1]
     freq (    8) =      23.378777 [THz] =     779.832074 [cm-1]
     freq (    9) =      23.378777 [THz] =     779.832074 [cm-1]

     Mode symmetry, D_6h(6/mmm) point group:

     freq (   1-   2) =         16.4  [cm-1]   --> E_1u            I
     freq (   3-   3) =         19.1  [cm-1]   --> A_2u            I
     freq (   4-   5) =        414.3  [cm-1]   --> E_1u            I
     freq (   6-   6) =        472.9  [cm-1]   --> A_2u            I
     freq (   7-   7) =        545.1  [cm-1]   --> B_1g
     freq (   8-   9) =        779.8  [cm-1]   --> E_2g            R

     INITIALIZATION:

     DYNAMICAL MATRIX:

      General routines

   This run was terminated on:   3:29:57   1Jun2022

   JOB DONE.