     Program PWSCF v.7.0 starts on 13Apr2022 at 14:33: 1

     R & G space division:  proc/nbgrp/npool/nimage =       8

     Reading input from mob2_pw.in

     Current dimensions of program PWSCF are:
     Max number of different atomic species (ntypx) = 10
     Max number of k-points (npk) =  40000
     Max angular momentum in pseudopotentials (lmaxx) =  4

     Subspace diagonalization in iterative solution of the eigenvalue problem:
     a serial algorithm will be used

     Using Slab Decomposition

     bravais-lattice index     =            4
     lattice parameter (alat)  =       5.8017  a.u.
     unit-cell volume          =     177.9102 (a.u.)^3
     number of atoms/cell      =            3
     number of atomic types    =            2
     number of electrons       =        20.00
     number of Kohn-Sham states=           20
     kinetic-energy cutoff     =      36.0000  Ry
     charge density cutoff     =     144.0000  Ry
     scf convergence threshold =      1.0E-06
     mixing beta               =       0.7000
     number of iterations used =            8  plain     mixing
     Exchange-correlation= PBE
                           (   1   4   3   4   0   0   0)

     celldm(1)=   5.801650  celldm(2)=   0.000000  celldm(3)=   1.052000
     celldm(4)=   0.000000  celldm(5)=   0.000000  celldm(6)=   0.000000

     crystal axes: (cart. coord. in units of alat)
               a(1) = (   1.000000   0.000000   0.000000 )
               a(2) = (  -0.500000   0.866025   0.000000 )
               a(3) = (   0.000000   0.000000   1.052000 )

     reciprocal axes: (cart. coord. in units 2 pi/alat)
               b(1) = (  1.000000  0.577350  0.000000 )
               b(2) = (  0.000000  1.154701  0.000000 )
               b(3) = (  0.000000  0.000000  0.950570 )

     PseudoPot. # 1 for Mo read from file:
     /home/marcocarmonaga/qe-7.0/pseudo/Mo_ONCV_PBE-1.2.upf
     MD5 check sum: 2665c9f4159700498d9a5f7573bd8e9f
     Pseudo is Norm-conserving, Zval = 14.0
     Generated using ONCVPSP code by D. R. Hamann
     Using radial grid of  602 points,  6 beta functions with:
                l(1) =   0
                l(2) =   0
                l(3) =   1
                l(4) =   1
                l(5) =   2
                l(6) =   2

     PseudoPot. # 2 for B  read from file:
     /home/marcocarmonaga/qe-7.0/pseudo/B_ONCV_PBE-1.2.upf
     MD5 check sum: eb3cbeacc2d324d57d903df00f564d27
     Pseudo is Norm-conserving, Zval =  3.0
     Generated using ONCVPSP code by D. R. Hamann
     Using radial grid of  602 points,  4 beta functions with:
                l(1) =   0
                l(2) =   0
                l(3) =   1
                l(4) =   1

     atomic species   valence    mass     pseudopotential
        Mo            14.00    95.95000     Mo( 1.00)
        B              3.00    10.81000     B ( 1.00)

     24 Sym. Ops., with inversion, found

   Cartesian axes

     site n.     atom                  positions (alat units)
         1           Mo  tau(   1) = (   0.0000000   0.0000000   0.0000000  )
         2           B   tau(   2) = (   0.5000000   0.2886751   0.5260000  )
         3           B   tau(   3) = (  -0.0000000   0.5773503   0.5260000  )

     number of k points=   333  Gaussian smearing, width (Ry)=  0.0150

     Number of k-points >= 100: set verbosity='high' to print them.

     Initial potential from superposition of free atoms

     starting charge      19.8751, renormalised to      20.0000
     Starting wfcs are random

     Self-consistent Calculation

     iteration #  1     ecut=    36.00 Ry     beta= 0.70
     Davidson diagonalization with overlap
     ethr =  1.00E-02,  avg # of iterations =  8.1

     total energy              =    -148.29981824 Ry
     estimated scf accuracy    <       0.46519312 Ry

[...]

     total energy              =    -148.56334296 Ry
     estimated scf accuracy    <       0.00001697 Ry

     iteration #  6     ecut=    36.00 Ry     beta= 0.70
     Davidson diagonalization with overlap
     ethr =  8.48E-08,  avg # of iterations =  1.1

     End of self-consistent calculation

     Number of k-points >= 100: set verbosity='high' to print the bands.

     the Fermi energy is    19.4025 ev

!    total energy              =    -148.56334495 Ry
     estimated scf accuracy    <       0.00000048 Ry
     smearing contrib. (-TS)   =      -0.00229118 Ry
     internal energy E=F+TS    =    -148.56105377 Ry

     The total energy is F=E-TS. E is the sum of the following terms:
     one-electron contribution =     -18.88234692 Ry
     hartree contribution      =      21.67827331 Ry
     xc contribution           =     -20.21033948 Ry
     ewald contribution        =    -131.14664069 Ry

     convergence has been achieved in   6 iterations

     Writing all to output data dir ./tmp/mob2.save/

     General routines

     Parallel routines

   This run was terminated on:  14:33:59  13Apr2022

   JOB DONE.