     Program PHONON v.7.0 starts on 31May2022 at  0:13:26

     R & G space division:  proc/nbgrp/npool/nimage =       8

     Reading input from mob2_fonon_05.in

     Reading xml data from directory:

     ./tmp/mob2.save/

     IMPORTANT: XC functional enforced from input :
     Exchange-correlation= PBE
                           (   1   4   3   4   0   0   0)
     Any further DFT definition will be discarded
     Please, verify this is what you really want

     Using Slab Decomposition

     Reading collected, re-writing distributed wavefunctions

     Dynamical matrices for ( 3, 3, 3)  uniform grid of q-points
     (   6 q-points):
       N         xq(1)         xq(2)         xq(3)
       1   0.000000000   0.000000000   0.000000000
       2   0.000000000   0.000000000   0.311376641
       3   0.000000000   0.384900179   0.000000000
       4   0.000000000   0.384900179   0.311376641
       5   0.333333333   0.577350269   0.000000000
       6   0.333333333   0.577350269   0.311376641

     Calculation of q =    0.3333333   0.5773503   0.0000000

     Subspace diagonalization in iterative solution of the eigenvalue problem:
     a serial algorithm will be used

     Using Slab Decomposition

     Title:
     Phonon calc for qp05

     bravais-lattice index     =            4
     lattice parameter (alat)  =       5.8733  a.u.
     unit-cell volume          =     187.8355 (a.u.)^3
     number of atoms/cell      =            3
     number of atomic types    =            2
     number of electrons       =        19.00
     number of Kohn-Sham states=           20
     kinetic-energy cutoff     =      36.0000  Ry
     charge density cutoff     =     504.0000  Ry
     Exchange-correlation= PBE
                           (   1   4   3   4   0   0   0)

     celldm(1)=   5.873335  celldm(2)=   0.000000  celldm(3)=   1.070515
     celldm(4)=   0.000000  celldm(5)=   0.000000  celldm(6)=   0.000000

     crystal axes: (cart. coord. in units of alat)
               a(1) = (   1.000000   0.000000   0.000000 )
               a(2) = (  -0.500000   0.866025   0.000000 )
               a(3) = (   0.000000   0.000000   1.070515 )

     reciprocal axes: (cart. coord. in units 2 pi/alat)
               b(1) = (  1.000000  0.577350  0.000000 )
               b(2) = (  0.000000  1.154701  0.000000 )
               b(3) = (  0.000000  0.000000  0.934130 )

     PseudoPot. # 1 for Xx read from file:
     /home/marcocarmonaga/Apps/qe-7.0/pseudo/Nb1.00Mo0.00.upf
     MD5 check sum: e4b562b21cfca1bf7e2ab47e57cae993
     Pseudo is Norm-conserving, Zval = 13.0
     Generated using virtual.x code
     Using radial grid of  602 points, 12 beta functions with:
                l(1) =   0
                l(2) =   0
                l(3) =   1
                l(4) =   1
                l(5) =   2
                l(6) =   2
                l(7) =   0
                l(8) =   0
                l(9) =   1
               l(10) =   1
               l(11) =   2
               l(12) =   2

     PseudoPot. # 2 for B  read from file:
     /home/marcocarmonaga/Apps/qe-7.0/pseudo/B_ONCV_PBE-1.2.upf
     MD5 check sum: eb3cbeacc2d324d57d903df00f564d27
     Pseudo is Norm-conserving, Zval =  3.0
     Generated using ONCVPSP code by D. R. Hamann
     Using radial grid of  602 points,  4 beta functions with:
                l(1) =   0
                l(2) =   0
                l(3) =   1
                l(4) =   1

     atomic species   valence    mass     pseudopotential
        Mo            13.00    92.90600     Xx( 1.00)
        B              3.00    10.81000     B ( 1.00)

     24 Sym. Ops., with inversion, found

   Cartesian axes

     site n.     atom                  positions (alat units)
         1           Mo  tau(   1) = (   0.0000000   0.0000000   0.0000000  )
         2           B   tau(   2) = (   0.5000000   0.2886751   0.5352574  )
         3           B   tau(   3) = (   0.0000000   0.5773503   0.5352574  )

     number of k points=  1152  Gaussian smearing, width (Ry)=  0.0150

     Number of k-points >= 100: set verbosity='high' to print them.

     The potential is recalculated from file :
     ./tmp/_ph0/mob2.save/charge-density

     Starting wfcs are    0 atomic +   20 random wfcs

     Band Structure Calculation
     Davidson diagonalization with overlap

     ethr =  5.26E-11,  avg # of iterations = 19.9

     End of band structure calculation

     Number of k-points >= 100: set verbosity='high' to print the bands.

     the Fermi energy is    18.4774 ev

     Phonon calc for qp05

     bravais-lattice index     =            4
     lattice parameter (alat)  =       5.8733  a.u.
     unit-cell volume          =     187.8355 (a.u.)^3
     number of atoms/cell      =            3
     number of atomic types    =            2
     kinetic-energy cut-off    =      36.0000  Ry
     charge density cut-off    =     504.0000  Ry
     convergence threshold     =      1.0E-14
     beta                      =       0.7000
     number of iterations used =            4
     Exchange-correlation= PBE
                           (   1   4   3   4   0   0   0)

     celldm(1)=    5.87334  celldm(2)=    0.00000  celldm(3)=    1.07051
     celldm(4)=    0.00000  celldm(5)=    0.00000  celldm(6)=    0.00000

     crystal axes: (cart. coord. in units of alat)
               a(1) = (  1.0000  0.0000  0.0000 )
               a(2) = ( -0.5000  0.8660  0.0000 )
               a(3) = (  0.0000  0.0000  1.0705 )

     reciprocal axes: (cart. coord. in units 2 pi/alat)
               b(1) = (  1.0000  0.5774  0.0000 )
               b(2) = (  0.0000  1.1547  0.0000 )
               b(3) = (  0.0000  0.0000  0.9341 )

     Atoms inside the unit cell:

     Cartesian axes

     site n.  atom      mass           positions (alat units)
        1     Mo  92.9060   tau(    1) = (    0.00000    0.00000    0.00000  )
        2     B   10.8100   tau(    2) = (    0.50000    0.28868    0.53526  )
        3     B   10.8100   tau(    3) = (    0.00000    0.57735    0.53526  )

     Computing dynamical matrix for
                    q = (   0.3333333   0.5773503   0.0000000 )

     12 Sym.Ops. (no q -> -q+G )

     G cutoff =  440.3929  (   4486 G-vectors)     FFT grid: ( 45, 45, 45)
     G cutoff =  125.8266  (    687 G-vectors)  smooth grid: ( 24, 24, 25)

     number of k points=  1152  Gaussian smearing, width (Ry)=  0.0150

     PseudoPot. # 1 for Xx read from file:
     /home/marcocarmonaga/Apps/qe-7.0/pseudo/Nb1.00Mo0.00.upf
     MD5 check sum: e4b562b21cfca1bf7e2ab47e57cae993
     Pseudo is Norm-conserving, Zval = 13.0
     Generated using virtual.x code
     Using radial grid of  602 points, 12 beta functions with:
                l(1) =   0
                l(2) =   0
                l(3) =   1
                l(4) =   1
                l(5) =   2
                l(6) =   2
                l(7) =   0
                l(8) =   0
                l(9) =   1
               l(10) =   1
               l(11) =   2
               l(12) =   2

     PseudoPot. # 2 for B  read from file:
     /home/marcocarmonaga/Apps/qe-7.0/pseudo/B_ONCV_PBE-1.2.upf
     MD5 check sum: eb3cbeacc2d324d57d903df00f564d27
     Pseudo is Norm-conserving, Zval =  3.0
     Generated using ONCVPSP code by D. R. Hamann
     Using radial grid of  602 points,  4 beta functions with:
                l(1) =   0
                l(2) =   0
                l(3) =   1
                l(4) =   1

     Mode symmetry, D_3h (-62m) point group:

     Atomic displacements:
     There are    6 irreducible representations

     Representation     1      1 modes -  To be done

[...]

     Representation     6      2 modes -  To be done

     Alpha used in Ewald sum =   2.8000

     Representation #   1 mode #   1

     Self-consistent Calculation

      thresh= 1.000E-02 alpha_mix =  0.700 |ddv_scf|^2 =  3.318E-05

[...]

     End of self-consistent calculation

     Convergence has been achieved

[...]

     Representation #   3 modes #   3   4

[...]

     Representation #   5 mode #   7

[...]

     Representation #   6 modes #   8   9

     Self-consistent Calculation

[...]

      thresh= 4.149E-08 alpha_mix =  0.700 |ddv_scf|^2 =  3.792E-16

     End of self-consistent calculation

     Convergence has been achieved

     Number of q in the star =    2
     List of q in the star:
          1   0.333333333   0.577350269   0.000000000
          2  -0.333333333  -0.577350269   0.000000000

     Diagonalizing the dynamical matrix

     q = (    0.333333333   0.577350269   0.000000000 )

     freq (    1) =       5.816610 [THz] =     194.021227 [cm-1]
     freq (    2) =       6.783786 [THz] =     226.282733 [cm-1]
     freq (    3) =       6.783786 [THz] =     226.282733 [cm-1]
     freq (    4) =      14.292463 [THz] =     476.745233 [cm-1]
     freq (    5) =      14.292463 [THz] =     476.745233 [cm-1]
     freq (    6) =      17.199109 [THz] =     573.700539 [cm-1]
     freq (    7) =      20.586853 [THz] =     686.703512 [cm-1]
     freq (    8) =      20.586853 [THz] =     686.703512 [cm-1]
     freq (    9) =      23.932616 [THz] =     798.306154 [cm-1]

     Mode symmetry, D_3h (-62m) point group:

     freq (   1-   1) =        194.0  [cm-1]   --> A''2
     freq (   2-   3) =        226.3  [cm-1]   --> E'
     freq (   4-   5) =        476.7  [cm-1]   --> E''
     freq (   6-   6) =        573.7  [cm-1]   --> A'_2
     freq (   7-   8) =        686.7  [cm-1]   --> E'
     freq (   9-   9) =        798.3  [cm-1]   --> A'_1

     General routines

     Parallel routines

     INITIALIZATION:

     DYNAMICAL MATRIX:

      General routines

   This run was terminated on:   0:25:22  31May2022

   JOB DONE.