     Program PWSCF v.7.0 starts on 30May2022 at 19:49: 1

     R & G space division:  proc/nbgrp/npool/nimage =       8

     Reading input from mob2_interfase.in

     Current dimensions of program PWSCF are:
     Max number of different atomic species (ntypx) = 10
     Max number of k-points (npk) =  40000
     Max angular momentum in pseudopotentials (lmaxx) =  4
     Message from routine setup:
     no reason to have ecutrho>4*ecutwfc

     Subspace diagonalization in iterative solution of the eigenvalue problem:
     a serial algorithm will be used

     Using Slab Decomposition

     bravais-lattice index     =            4
     lattice parameter (alat)  =       5.8733  a.u.
     unit-cell volume          =     187.8355 (a.u.)^3
     number of atoms/cell      =            3
     number of atomic types    =            2
     number of electrons       =        19.00
     number of Kohn-Sham states=           20
     kinetic-energy cutoff     =      36.0000  Ry
     charge density cutoff     =     504.0000  Ry
     scf convergence threshold =      1.0E-08
     mixing beta               =       0.7000
     number of iterations used =            8  plain     mixing
     Exchange-correlation= PBE
                           (   1   4   3   4   0   0   0)

     celldm(1)=   5.873335  celldm(2)=   0.000000  celldm(3)=   1.070515
     celldm(4)=   0.000000  celldm(5)=   0.000000  celldm(6)=   0.000000

     crystal axes: (cart. coord. in units of alat)
               a(1) = (   1.000000   0.000000   0.000000 )
               a(2) = (  -0.500000   0.866025   0.000000 )
               a(3) = (   0.000000   0.000000   1.070515 )

     reciprocal axes: (cart. coord. in units 2 pi/alat)
               b(1) = (  1.000000  0.577350  0.000000 )
               b(2) = (  0.000000  1.154701  0.000000 )
               b(3) = (  0.000000  0.000000  0.934130 )

     PseudoPot. # 1 for Xx read from file:
     /home/marcocarmonaga/Apps/qe-7.0/pseudo/Nb1.00Mo0.00.upf
     MD5 check sum: e4b562b21cfca1bf7e2ab47e57cae993
     Pseudo is Norm-conserving, Zval = 13.0
     Generated using virtual.x code
     Using radial grid of  602 points, 12 beta functions with:
                l(1) =   0
                l(2) =   0
                l(3) =   1
                l(4) =   1
                l(5) =   2
                l(6) =   2
                l(7) =   0
                l(8) =   0
                l(9) =   1
               l(10) =   1
               l(11) =   2
               l(12) =   2

     PseudoPot. # 2 for B  read from file:
     /home/marcocarmonaga/Apps/qe-7.0/pseudo/B_ONCV_PBE-1.2.upf
     MD5 check sum: eb3cbeacc2d324d57d903df00f564d27
     Pseudo is Norm-conserving, Zval =  3.0
     Generated using ONCVPSP code by D. R. Hamann
     Using radial grid of  602 points,  4 beta functions with:
                l(1) =   0
                l(2) =   0
                l(3) =   1
                l(4) =   1

     atomic species   valence    mass     pseudopotential
        Mo            13.00    92.90600     Xx( 1.00)
        B              3.00    10.81000     B ( 1.00)

     24 Sym. Ops., with inversion, found

   Cartesian axes

     site n.     atom                  positions (alat units)
         1           Mo  tau(   1) = (   0.0000000   0.0000000   0.0000000  )
         2           B   tau(   2) = (   0.5000000   0.2886751   0.5352575  )
         3           B   tau(   3) = (   0.0000000   0.5773503   0.5352575  )

     number of k points=   333  Gaussian smearing, width (Ry)=  0.0150

     Number of k-points >= 100: set verbosity='high' to print them.

     Initial potential from superposition of free atoms

     starting charge      18.8503, renormalised to      19.0000
     Starting wfcs are random

     Self-consistent Calculation

     iteration #  1     ecut=    36.00 Ry     beta= 0.70
     Davidson diagonalization with overlap
     ethr =  1.00E-02,  avg # of iterations =  8.3

     total energy              =    -125.32003536 Ry
     estimated scf accuracy    <       0.45580934 Ry

[...]

     total energy              =    -125.55903913 Ry
     estimated scf accuracy    <       0.00000005 Ry

     iteration #  7     ecut=    36.00 Ry     beta= 0.70
     Davidson diagonalization with overlap
     ethr =  2.50E-10,  avg # of iterations =  2.8

     End of self-consistent calculation

     Number of k-points >= 100: set verbosity='high' to print the bands.

     the Fermi energy is    18.4773 ev

!    total energy              =    -125.55903916 Ry
     estimated scf accuracy    <          4.5E-09 Ry
     smearing contrib. (-TS)   =      -0.00156648 Ry
     internal energy E=F+TS    =    -125.55747268 Ry

     The total energy is F=E-TS. E is the sum of the following terms:
     one-electron contribution =      -9.28819134 Ry
     hartree contribution      =      15.86489584 Ry
     xc contribution           =     -18.30478248 Ry
     ewald contribution        =    -113.82939471 Ry

     convergence has been achieved in   7 iterations

     Writing all to output data dir ./tmp/mob2.save/

     General routines

     Parallel routines

   This run was terminated on:  19:49:25  30May2022

   JOB DONE.